10	5
0	2	2	1
1	2	10	7
2	1	5
3	2	8	9
4	0
5	3	7	6	10
6	1	4
7	2	8	9
8	1	11
9	1	11
10	1	11
11	0
0	0	0	0	0	0	0
1	6	4	5	0	4	1
2	10	3	0	0	1	3
3	1	5	2	3	0	0
4	3	0	3	0	3	0
5	3	0	5	0	0	5
6	8	5	5	0	3	5
7	4	4	3	0	1	0
8	3	0	0	0	2	0
9	8	1	0	0	1	0
10	6	0	0	0	2	0
11	0	0	0	0	0	0
5	5	5	5	5
